-172.0 10.0 4.0 7.0 2.0 10.0 3.0 0.0 1.0 6.0 8.0 3.0 1.0 7.0 4.0 0.0 2.0 7.0 5.0 10.0 9.0 7.0 6.0 2.0 5.0 0.0 10.0 6.0 4.0 3.0 10.0 4.0 8.0 6.0 2.0 
10.0 -145.0 5.0 9.0 1.0 6.0 2.0 3.0 5.0 5.0 4.0 3.0 9.0 1.0 4.0 10.0 3.0 4.0 5.0 9.0 3.0 4.0 8.0 4.0 3.0 1.0 7.0 3.0 3.0 5.0 2.0 3.0 1.0 0.0 0.0 
4.0 5.0 -161.0 7.0 4.0 7.0 8.0 0.0 1.0 2.0 10.0 8.0 8.0 4.0 5.0 9.0 2.0 10.0 3.0 8.0 4.0 0.0 7.0 2.0 6.0 1.0 1.0 0.0 8.0 10.0 3.0 3.0 1.0 8.0 2.0 
7.0 9.0 7.0 -172.0 5.0 5.0 5.0 3.0 4.0 8.0 4.0 9.0 7.0 0.0 1.0 5.0 2.0 0.0 7.0 9.0 5.0 10.0 10.0 2.0 6.0 6.0 7.0 0.0 0.0 6.0 0.0 8.0 7.0 8.0 0.0 
2.0 1.0 4.0 5.0 -150.0 10.0 2.0 7.0 9.0 4.0 5.0 7.0 1.0 1.0 1.0 1.0 10.0 0.0 3.0 3.0 5.0 1.0 3.0 10.0 3.0 9.0 4.0 5.0 2.0 5.0 5.0 3.0 6.0 9.0 4.0 
10.0 6.0 7.0 5.0 10.0 -172.0 3.0 1.0 5.0 4.0 4.0 3.0 10.0 2.0 8.0 3.0 7.0 7.0 5.0 9.0 3.0 6.0 3.0 9.0 4.0 1.0 4.0 10.0 2.0 3.0 2.0 5.0 5.0 5.0 1.0 
3.0 2.0 8.0 5.0 2.0 3.0 -193.0 5.0 10.0 9.0 8.0 10.0 10.0 5.0 2.0 8.0 3.0 10.0 9.0 7.0 3.0 4.0 0.0 2.0 4.0 4.0 7.0 5.0 8.0 5.0 8.0 8.0 3.0 4.0 9.0 
0.0 3.0 0.0 3.0 7.0 1.0 5.0 -153.0 0.0 8.0 10.0 8.0 8.0 5.0 0.0 7.0 10.0 7.0 1.0 1.0 2.0 4.0 10.0 4.0 7.0 8.0 0.0 6.0 0.0 2.0 10.0 6.0 2.0 8.0 0.0 
1.0 5.0 1.0 4.0 9.0 5.0 10.0 0.0 -165.0 10.0 1.0 3.0 4.0 2.0 10.0 6.0 4.0 4.0 2.0 3.0 3.0 8.0 3.0 4.0 4.0 10.0 6.0 0.0 10.0 2.0 8.0 7.0 9.0 2.0 5.0 
6.0 5.0 2.0 8.0 4.0 4.0 9.0 8.0 10.0 -192.0 0.0 2.0 6.0 10.0 9.0 4.0 7.0 6.0 4.0 2.0 5.0 8.0 8.0 5.0 7.0 8.0 9.0 4.0 3.0 8.0 10.0 4.0 2.0 5.0 0.0 
8.0 4.0 10.0 4.0 5.0 4.0 8.0 10.0 1.0 0.0 -157.0 10.0 3.0 0.0 4.0 1.0 8.0 1.0 2.0 9.0 0.0 5.0 0.0 0.0 6.0 8.0 7.0 7.0 6.0 6.0 5.0 7.0 2.0 3.0 3.0 
3.0 3.0 8.0 9.0 7.0 3.0 10.0 8.0 3.0 2.0 10.0 -178.0 7.0 2.0 0.0 1.0 9.0 7.0 1.0 3.0 7.0 4.0 7.0 5.0 3.0 6.0 2.0 10.0 4.0 0.0 8.0 7.0 4.0 10.0 5.0 
1.0 9.0 8.0 7.0 1.0 10.0 10.0 8.0 4.0 6.0 3.0 7.0 -196.0 5.0 1.0 1.0 5.0 0.0 3.0 5.0 7.0 9.0 9.0 5.0 10.0 10.0 8.0 0.0 2.0 9.0 4.0 6.0 10.0 4.0 9.0 
7.0 1.0 4.0 0.0 1.0 2.0 5.0 5.0 2.0 10.0 0.0 2.0 5.0 -123.0 1.0 3.0 3.0 1.0 1.0 8.0 5.0 7.0 4.0 2.0 1.0 4.0 9.0 3.0 5.0 0.0 6.0 4.0 4.0 5.0 3.0 
4.0 4.0 5.0 1.0 1.0 8.0 2.0 0.0 10.0 9.0 4.0 0.0 1.0 1.0 -153.0 10.0 4.0 7.0 9.0 6.0 9.0 1.0 2.0 2.0 9.0 0.0 10.0 4.0 3.0 6.0 4.0 5.0 5.0 4.0 3.0 
0.0 10.0 9.0 5.0 1.0 3.0 8.0 7.0 6.0 4.0 1.0 1.0 1.0 3.0 10.0 -160.0 2.0 0.0 9.0 4.0 7.0 5.0 2.0 8.0 3.0 4.0 5.0 2.0 1.0 8.0 8.0 3.0 2.0 9.0 9.0 
2.0 3.0 2.0 2.0 10.0 7.0 3.0 10.0 4.0 7.0 8.0 9.0 5.0 3.0 4.0 2.0 -183.0 4.0 5.0 10.0 5.0 1.0 10.0 2.0 5.0 9.0 8.0 2.0 0.0 6.0 10.0 7.0 8.0 9.0 1.0 
7.0 4.0 10.0 0.0 0.0 7.0 10.0 7.0 4.0 6.0 1.0 7.0 0.0 1.0 7.0 0.0 4.0 -148.0 4.0 8.0 4.0 7.0 4.0 1.0 4.0 10.0 7.0 0.0 7.0 3.0 7.0 3.0 2.0 1.0 1.0 
5.0 5.0 3.0 7.0 3.0 5.0 9.0 1.0 2.0 4.0 2.0 1.0 3.0 1.0 9.0 9.0 5.0 4.0 -147.0 4.0 9.0 9.0 2.0 5.0 8.0 3.0 2.0 6.0 3.0 1.0 3.0 0.0 4.0 6.0 4.0 
10.0 9.0 8.0 9.0 3.0 9.0 7.0 1.0 3.0 2.0 9.0 3.0 5.0 8.0 6.0 4.0 10.0 8.0 4.0 -185.0 6.0 8.0 4.0 2.0 1.0 8.0 2.0 7.0 5.0 6.0 5.0 2.0 5.0 0.0 6.0 
9.0 3.0 4.0 5.0 5.0 3.0 3.0 2.0 3.0 5.0 0.0 7.0 7.0 5.0 9.0 7.0 5.0 4.0 9.0 6.0 -154.0 2.0 1.0 5.0 5.0 0.0 10.0 1.0 3.0 5.0 5.0 6.0 5.0 5.0 0.0 
7.0 4.0 0.0 10.0 1.0 6.0 4.0 4.0 8.0 8.0 5.0 4.0 9.0 7.0 1.0 5.0 1.0 7.0 9.0 8.0 2.0 -166.0 6.0 4.0 1.0 10.0 3.0 10.0 1.0 3.0 4.0 4.0 6.0 4.0 0.0 
6.0 8.0 7.0 10.0 3.0 3.0 0.0 10.0 3.0 8.0 0.0 7.0 9.0 4.0 2.0 2.0 10.0 4.0 2.0 4.0 1.0 6.0 -173.0 9.0 1.0 6.0 2.0 1.0 10.0 10.0 1.0 5.0 0.0 9.0 10.0 
2.0 4.0 2.0 2.0 10.0 9.0 2.0 4.0 4.0 5.0 0.0 5.0 5.0 2.0 2.0 8.0 2.0 1.0 5.0 2.0 5.0 4.0 9.0 -142.0 10.0 1.0 6.0 5.0 2.0 7.0 0.0 4.0 0.0 4.0 9.0 
5.0 3.0 6.0 6.0 3.0 4.0 4.0 7.0 4.0 7.0 6.0 3.0 10.0 1.0 9.0 3.0 5.0 4.0 8.0 1.0 5.0 1.0 1.0 10.0 -163.0 3.0 0.0 1.0 5.0 3.0 10.0 4.0 10.0 7.0 4.0 
0.0 1.0 1.0 6.0 9.0 1.0 4.0 8.0 10.0 8.0 8.0 6.0 10.0 4.0 0.0 4.0 9.0 10.0 3.0 8.0 0.0 10.0 6.0 1.0 3.0 -180.0 0.0 9.0 8.0 1.0 9.0 3.0 7.0 5.0 8.0 
10.0 7.0 1.0 7.0 4.0 4.0 7.0 0.0 6.0 9.0 7.0 2.0 8.0 9.0 10.0 5.0 8.0 7.0 2.0 2.0 10.0 3.0 2.0 6.0 0.0 0.0 -189.0 6.0 1.0 8.0 0.0 10.0 9.0 9.0 10.0 
6.0 3.0 0.0 0.0 5.0 10.0 5.0 6.0 0.0 4.0 7.0 10.0 0.0 3.0 4.0 2.0 2.0 0.0 6.0 7.0 1.0 10.0 1.0 5.0 1.0 9.0 6.0 -146.0 8.0 5.0 5.0 3.0 1.0 3.0 8.0 
4.0 3.0 8.0 0.0 2.0 2.0 8.0 0.0 10.0 3.0 6.0 4.0 2.0 5.0 3.0 1.0 0.0 7.0 3.0 5.0 3.0 1.0 10.0 2.0 5.0 8.0 1.0 8.0 -160.0 10.0 7.0 8.0 10.0 5.0 6.0 
3.0 5.0 10.0 6.0 5.0 3.0 5.0 2.0 2.0 8.0 6.0 0.0 9.0 0.0 6.0 8.0 6.0 3.0 1.0 6.0 5.0 3.0 10.0 7.0 3.0 1.0 8.0 5.0 10.0 -171.0 10.0 4.0 2.0 1.0 8.0 
10.0 2.0 3.0 0.0 5.0 2.0 8.0 10.0 8.0 10.0 5.0 8.0 4.0 6.0 4.0 8.0 10.0 7.0 3.0 5.0 5.0 4.0 1.0 0.0 10.0 9.0 0.0 5.0 7.0 10.0 -186.0 1.0 4.0 2.0 10.0 
4.0 3.0 3.0 8.0 3.0 5.0 8.0 6.0 7.0 4.0 7.0 7.0 6.0 4.0 5.0 3.0 7.0 3.0 0.0 2.0 6.0 4.0 5.0 4.0 4.0 3.0 10.0 3.0 8.0 4.0 1.0 -162.0 1.0 10.0 4.0 
8.0 1.0 1.0 7.0 6.0 5.0 3.0 2.0 9.0 2.0 2.0 4.0 10.0 4.0 5.0 2.0 8.0 2.0 4.0 5.0 5.0 6.0 0.0 0.0 10.0 7.0 9.0 1.0 10.0 2.0 4.0 1.0 -164.0 10.0 9.0 
6.0 0.0 8.0 8.0 9.0 5.0 4.0 8.0 2.0 5.0 3.0 10.0 4.0 5.0 4.0 9.0 9.0 1.0 6.0 0.0 5.0 4.0 9.0 4.0 7.0 5.0 9.0 3.0 5.0 1.0 2.0 10.0 10.0 -185.0 5.0 
2.0 0.0 2.0 0.0 4.0 1.0 9.0 0.0 5.0 0.0 3.0 5.0 9.0 3.0 3.0 9.0 1.0 1.0 4.0 6.0 0.0 0.0 10.0 9.0 4.0 8.0 10.0 8.0 6.0 8.0 10.0 4.0 9.0 5.0 -158.0 

